language Essence 1.3

letting course_load be
        function(1 --> 5, 2 --> 3, 3 --> 6, 4 --> 8, 5 --> 6, 6 --> 8, 7 --> 6, 8 --> 1, 9 --> 8, 10 --> 7, 11 --> 8,
                 12 --> 2, 13 --> 2, 14 --> 8, 15 --> 2, 16 --> 6, 17 --> 5, 18 --> 6, 19 --> 3, 20 --> 1, 21 --> 7,
                 22 --> 3, 23 --> 2, 24 --> 7, 25 --> 6, 26 --> 3, 27 --> 5, 28 --> 4, 29 --> 5, 30 --> 4, 31 --> 5,
                 32 --> 8, 33 --> 7, 34 --> 5, 35 --> 7, 36 --> 2, 37 --> 5, 38 --> 5, 39 --> 1, 40 --> 5, 41 --> 3,
                 42 --> 6, 43 --> 6, 44 --> 6, 45 --> 8, 46 --> 5, 47 --> 2, 48 --> 3, 49 --> 3)
letting courses_per_period_lb be 1
letting courses_per_period_ub be 25
letting load_per_period_lb be 1
letting load_per_period_ub be 47
letting n_courses be 49
letting n_periods be 39
letting prerequisite be
        relation((41, 1), (41, 3), (41, 5), (41, 6), (41, 8), (41, 10), (41, 11), (41, 13), (41, 15), (41, 16),
                 (41, 17), (41, 20), (41, 24), (42, 2), (42, 3), (42, 4), (42, 6), (42, 8), (42, 9), (42, 10), (42, 11),
                 (42, 13), (42, 14), (42, 16), (42, 18), (42, 19), (42, 22), (43, 1), (43, 3), (43, 7), (43, 8),
                 (43, 10), (43, 12), (43, 13), (43, 15), (43, 18), (43, 20), (43, 21), (43, 24), (44, 1), (44, 2),
                 (44, 3), (44, 6), (44, 8), (44, 11), (44, 12), (44, 14), (44, 17), (44, 20), (44, 21), (45, 4),
                 (45, 7), (45, 8), (45, 17), (45, 19), (45, 21), (45, 23), (45, 24))
$ Visualisation for prerequisite
$ 41  1
$ 41  3
$ 41  5
$ 41  6
$ 41  8
$ 41 10
$ 41 11
$ 41 13
$ 41 15
$ 41 16
$ 41 17
$ 41 20
$ 41 24
$ 42  2
$ 42  3
$ 42  4
$ 42  6
$ 42  8
$ 42  9
$ 42 10
$ 42 11
$ 42 13
$ 42 14
$ 42 16
$ 42 18
$ 42 19
$ 42 22
$ 43  1
$ 43  3
$ 43  7
$ 43  8
$ 43 10
$ 43 12
$ 43 13
$ 43 15
$ 43 18
$ 43 20
$ 43 21
$ 43 24
$ 44  1
$ 44  2
$ 44  3
$ 44  6
$ 44  8
$ 44 11
$ 44 12
$ 44 14
$ 44 17
$ 44 20
$ 44 21
$ 45  4
$ 45  7
$ 45  8
$ 45 17
$ 45 19
$ 45 21
$ 45 23
$ 45 24

